10J3M/DAT/10J3MNTA-2.dat
10 3
22.9993 528.9678
19.9936 399.744
16.5261 273.112
24.1927 585.2867
26.6885 712.276
26.2727 690.2548
24.3324 592.0657
22.1512 490.6757
18.2393 332.6721
29.0338 842.9615
1362.0041