10J3M/SOL/10J3MNTA-2.sol
solution status: optimal solution found
objective value:                     67.6706848622111
x#1#3                                               1 	(obj:0)
x#2#2                                               1 	(obj:0)
x#3#2                               0.230458221169429 	(obj:0)
x#4#1                                               1 	(obj:0)
x#5#1                                 0.0795043885797 	(obj:0)
x#5#2                               0.207086310808748 	(obj:0)
x#5#3                               0.713409300611552 	(obj:0)
x#6#2                                               1 	(obj:0)
x#8#1                                               1 	(obj:0)
x#9#2                               0.404424893465525 	(obj:0)
x#9#3                               0.595575106534475 	(obj:0)
x#10#1                              0.605138102528607 	(obj:0)
x#10#3                              0.394861897471393 	(obj:0)
z                                    67.6706848622111 	(obj:1)
